nApps = 233
nRes = 9
nActs = 466
nNetworks = 6

assignmentToResources = [1,1,1,3,1,3,3,1,3,1,3,2,2,2,2,1,2,3,2,2,3,2,3,3,3,3,2,1,2,2,2,2,1,3,3,1,2,2,1,1,3,3,1,2,1,2,2,2,2,2,2,2,3,3,1,2,2,2,2,2,2,3,3,1,1,3,3,3,2,3,3,3,3,2,1,1,2,1,1,2,2,3,1,3,3,3,2,1,1,2,1,1,3,1,3,3,3,1,3,1,4,4,4,4,4,4,4,4,4,4,4,6,6,6,6,6,4,4,6,4,4,6,6,6,6,6,6,4,6,5,5,5,5,4,4,5,5,6,6,6,5,5,6,6,5,6,6,6,6,6,6,5,5,5,5,4,4,4,5,5,5,5,5,5,5,5,4,4,4,4,6,6,6,6,6,4,5,4,4,6,6,6,6,6,4,5,5,5,5,5,5,5,5,5,5,5,6,6,6,5,5,5,5,5,5,5,5,5,5,5,5,6,6,6,6,6,4,4,4,4,4,6,6,5,5,5,5,6,6,6,6,6,6,4,4,4,4,4,4,5,5,5,6,6,4,4,4,6,6,6,6,5,5,4,5,5,6,4,6,6,6,4,4,4,8,5,9,6,8,4,9,5,9,6,7,4,8,6,8,5,7,4,8,5,9,6,7,6,7,6,8,5,9,5,9,6,7,6,8,6,7,4,9,9,9,9,8,8,8,9,8,8,9,9,8,8,7,7,8,8,9,7,8,8,7,7,8,8,8,8,9,8,9,9,9,7,8,9,7,9,7,7,7,9,9,8,7,9,8,8,7,7,7,7,9,7,9,7,9,8,8,7,9,9,7,9,9,9,9,8,9,8,8,8,8,8,7,7,8,9,8,9,8,8,8,8,8,8,9,9,7,7,9,7,9,9,7,9,9,7,8,8,7,7,9,7,9,9,7,9,9,9,7,7,8,8,7,8,8,8,8,9,9,9,7,7,9,9,9,9,7,7,8,8,8,8,9,8,9,8,8,8,9,9,9,8,8,9,8,9,7,8,7,8,7,7,9,9,9,7,8,7,7,7,9,8];

processingTimes = [160,168,136,136,152,120,104,112,72,104,160,104,48,104,128,72,168,120,128,128,104,88,128,136,120,120,128,136,168,136,152,136,120,48,144,96,152,168,136,56,144,56,136,144,112,120,128,80,56,48,168,80,104,112,152,160,136,112,128,144,168,136,112,128,120,104,120,88,128,136,152,72,112,144,128,120,136,128,136,64,112,160,80,48,96,128,64,48,128,152,136,64,120,48,128,72,168,88,104,112,4,4,13,13,3,4,4,4,4,500,4,4,4,500,3,4,500,4,500,5,3,3,4,4,200,4,200,4,5,5,5,4,4,3,500,4,4,5,5,500,4,3,3,4,4,4,4,3,3,3,3,3,3,3,500,3,3,3,3,4,4,4,4,3,3,8,3,17,13,13,5,200,4,3,3,500,4,4,500,4,4,4,4,4,4,4,4,4,500,3,8,3,3,3,3,4,500,4,4,4,4,500,27,4,3,23,3,3,3,4,3,500,3,3,5,500,500,3,500,3,3,8,4,3,500,4,500,6,4,3,500,3,3,4,500,8,5,500,8,500,500,500,3,3,500,4,500,3,4,4,500,5,500,3,3,500,4,200,500,3,4,4,4,13,13,3,3,4,4,4,4,8,8,4,4,4,4,8,8,5,5,3,3,7,7,4,4,3,3,4,4,13,13,23,23,3,3,4,4,11,11,3,3,4,4,13,13,3,4,4,4,4,500,4,4,4,500,3,4,500,4,500,5,3,3,4,4,200,4,200,4,5,5,5,4,4,3,500,4,4,5,5,500,4,3,3,4,4,4,4,3,3,3,3,3,3,3,500,3,3,3,3,4,4,4,4,3,3,8,3,17,13,13,5,200,4,3,3,500,4,4,500,4,4,4,4,4,4,4,4,4,500,3,8,3,3,3,3,4,500,4,4,4,4,500,27,4,3,23,3,3,3,4,3,500,3,3,5,500,500,3,500,3,3,8,4,3,500,4,500,6,4,3,500,3,3,4,500,8,5,500,8,500,500,500,3,3,500,4,500,3,4,4,500,5,500,3,3,500,4,200,500,3,4,4,4];

periods = [10000,100000,100000,50000,100000,10000,20000,100000,2000,1000,20000,100000,10000,100000,20000,20000,20000,10000,100000,10000,10000,10000,20000,100000,1000,100000,10000,20000,10000,2000,20000,100000,20000,2000,20000,10000,100000,10000,50000,50000,20000,20000,10000,10000,1000,100000,10000,20000,10000,2000,100000,20000,100000,10000,20000,100000,100000,100000,100000,100000,5000,10000,10000,20000,20000,20000,100000,10000,10000,100000,100000,20000,10000,2000,20000,20000,10000,50000,20000,10000,100000,20000,10000,10000,100000,20000,20000,10000,20000,20000,100000,100000,10000,2000,50000,100000,10000,1000,10000,20000,10000,10000,10000,10000,100000,100000,100000,100000,100000,100000,100000,50000,50000,50000,50000,50000,100000,100000,20000,100000,100000,2000,2000,2000,2000,2000,2000,1000,20000,100000,100000,100000,100000,20000,20000,20000,20000,10000,10000,10000,100000,10000,10000,10000,10000,20000,100000,100000,1000,1000,100000,10000,10000,10000,10000,20000,20000,20000,2000,2000,2000,20000,20000,20000,20000,20000,20000,20000,20000,20000,2000,2000,2000,20000,20000,10000,100000,50000,50000,20000,20000,20000,20000,20000,10000,10000,10000,10000,10000,10000,20000,10000,10000,2000,2000,100000,10000,10000,10000,100000,100000,100000,100000,100000,100000,100000,100000,100000,100000,5000,5000,10000,10000,10000,10000,10000,20000,20000,20000,20000,20000,20000,10000,10000,10000,10000,10000,100000,100000,100000,20000,10000,10000,20000,20000,50000,50000,20000,20000,10000,10000,100000,20000,20000,10000,10000,10000,10000,100000,20000,20000,20000,20000,10000,20000,20000,10000,2000,100000,100000,10000,1000,1000,10000,10000,10000,10000,10000,10000,20000,20000,20000,20000,20000,20000,20000,20000,20000,20000,20000,20000,20000,20000,20000,20000,20000,20000,20000,20000,100000,100000,100000,100000,100000,100000,20000,20000,2000,2000,50000,50000,20000,20000,10000,10000,10000,10000,100000,100000,100000,100000,100000,100000,100000,50000,50000,50000,50000,50000,100000,100000,20000,100000,100000,2000,2000,2000,2000,2000,2000,1000,20000,100000,100000,100000,100000,20000,20000,20000,20000,10000,10000,10000,100000,10000,10000,10000,10000,20000,100000,100000,1000,1000,100000,10000,10000,10000,10000,20000,20000,20000,2000,2000,2000,20000,20000,20000,20000,20000,20000,20000,20000,20000,2000,2000,2000,20000,20000,10000,100000,50000,50000,20000,20000,20000,20000,20000,10000,10000,10000,10000,10000,10000,20000,10000,10000,2000,2000,100000,10000,10000,10000,100000,100000,100000,100000,100000,100000,100000,100000,100000,100000,5000,5000,10000,10000,10000,10000,10000,20000,20000,20000,20000,20000,20000,10000,10000,10000,10000,10000,100000,100000,100000,20000,10000,10000,20000,20000,50000,50000,20000,20000,10000,10000,100000,20000,20000,10000,10000,10000,10000,100000,20000,20000,20000,20000,10000,20000,20000,10000,2000,100000,100000,10000,1000,1000];

assignmentToClusters = [1,2,3,4,5,1,6,7,8,9,10,11,12,13,14,6,15,16,17,18,19,20,21,22,23,13,24,6,25,26,27,28,29,26,6,30,13,31,32,32,6,6,33,34,35,13,36,6,37,38,39,6,13,40,21,41,42,13,43,44,45,46,47,48,10,48,49,50,51,52,53,48,54,55,29,56,1,32,6,1,13,57,58,59,60,61,6,62,29,6,63,64,65,66,32,67,68,69,70,6,71,72,73,74,75,76,77,78,79,80,81,82,83,84,85,86,87,88,89,90,91,92,93,94,95,96,97,98,99,100,101,102,103,104,105,106,107,108,109,110,111,112,113,114,115,116,117,118,119,120,121,122,123,124,125,126,127,128,129,130,131,132,133,134,135,136,137,138,139,140,141,142,143,144,145,146,147,148,149,150,151,152,153,154,155,156,157,158,159,160,161,162,163,164,165,166,167,168,169,170,171,172,173,174,175,176,177,178,179,180,181,182,183,184,185,186,187,188,189,190,191,192,193,194,195,196,197,198,199,200,201,202,203,204,205,206,207,208,209,210,211,212,213,214,215,216,217,218,219,220,221,222,223,224,225,226,227,228,229,230,231,232,233,1,1,1,1,1,1,6,6,6,6,6,6,6,6,6,6,6,6,6,6,6,6,6,6,10,10,13,13,13,13,13,13,21,21,26,26,32,32,48,48,71,72,73,74,75,76,77,78,79,80,81,82,83,84,85,86,87,88,89,90,91,92,93,94,95,96,97,98,99,100,101,102,103,104,105,106,107,108,109,110,111,112,113,114,115,116,117,118,119,120,121,122,123,124,125,126,127,128,129,130,131,132,133,134,135,136,137,138,139,140,141,142,143,144,145,146,147,148,149,150,151,152,153,154,155,156,157,158,159,160,161,162,163,164,165,166,167,168,169,170,171,172,173,174,175,176,177,178,179,180,181,182,183,184,185,186,187,188,189,190,191,192,193,194,195,196,197,198,199,200,201,202,203,204,205,206,207,208,209,210,211,212,213,214,215,216,217,218,219,220,221,222,223,224,225,226,227,228,229,230,231,232,233];

precedenceAdjList = [[],[],[],[],[],[266],[270,272],[],[],[],[],[],[],[45,290],[],[280],[],[],[],[],[],[],[],[],[],[294],[],[286],[],[298],[],[],[],[],[],[],[],[],[39],[77],[],[284],[],[],[],[57,36],[],[],[],[],[],[47,276,278],[292],[],[296],[],[],[],[],[],[],[],[],[],[288],[71],[],[],[],[],[],[302],[],[],[88],[],[268],[300],[274],[264],[],[],[],[],[],[],[51],[],[32],[282],[],[],[],[],[],[],[],[],[],[],[],[],[],[],[],[],[],[],[],[],[],[],[],[],[],[],[],[],[],[],[],[],[],[],[],[],[],[],[],[],[],[],[],[],[],[],[],[],[],[],[],[],[],[],[],[],[],[],[],[],[],[],[],[],[],[],[],[],[],[],[],[],[],[],[],[],[],[],[],[],[],[],[],[],[],[],[],[],[],[],[],[],[],[],[],[],[],[],[],[],[],[],[],[],[],[],[],[],[],[],[],[],[],[],[],[],[],[],[],[],[],[],[],[],[],[],[],[],[],[],[],[],[],[],[],[],[],[],[],[],[],[],[],[],[],[],[],[],[],[],[],[],[],[],[],[],[],[],[],[],[],[],[],[],[],[],[],[],[],[],[],[],[],[0],[263],[79],[265],[5],[267],[78],[269],[51],[271],[40],[273],[99],[275],[34],[277],[86],[279],[15],[281],[89],[283],[41],[285],[10],[287],[25],[289],[45],[291],[80],[293],[22],[295],[33],[297],[94],[299],[63],[301],[100],[101],[102],[103],[104],[105],[106],[107],[108],[109],[110],[111],[112],[113],[114],[115],[116],[117],[118],[119],[120],[121],[122],[123],[124],[125],[126],[127],[128],[129],[130],[131],[132],[133],[134],[135],[136],[137],[138],[139],[140],[141],[142],[143],[144],[145],[146],[147],[148],[149],[150],[151],[152],[153],[154],[155],[156],[157],[158],[159],[160],[161],[162],[163],[164],[165],[166],[167],[168],[169],[170],[171],[172],[173],[174],[175],[176],[177],[178],[179],[180],[181],[182],[183],[184],[185],[186],[187],[188],[189],[190],[191],[192],[193],[194],[195],[196],[197],[198],[199],[200],[201],[202],[203],[204],[205],[206],[207],[208],[209],[210],[211],[212],[213],[214],[215],[216],[217],[218],[219],[220],[221],[222],[223],[224],[225],[226],[227],[228],[229],[230],[231],[232],[233],[234],[235],[236],[237],[238],[239],[240],[241],[242],[243],[244],[245],[246],[247],[248],[249],[250],[251],[252],[253],[254],[255],[256],[257],[258],[259],[260],[261],[262]];